20
10
206339
0
0
38 48 46 49 44 39 36 55 64 47
1
0
40 46 47 50 45 39 40 53 59 49
2
0
38 52 42 51 47 37 38 58 62 48
3
0
37 49 46 42 48 39 37 55 59 46
4
0
42 48 41 50 45 38 38 57 58 48
5
0
41 54 47 50 49 37 37 56 60 49
6
0
38 47 41 50 49 35 38 54 54 50
7
0
45 48 44 46 48 36 38 55 59 52
8
0
42 46 43 52 48 38 40 56 57 48
9
0
40 45 43 48 51 37 41 57 55 46
10
0
41 48 52 45 44 35 42 56 59 49
11
0
42 47 41 47 45 39 40 57 66 51
12
0
42 47 47 52 46 36 41 57 59 46
13
0
41 47 44 50 46 39 39 54 61 48
14
0
45 49 43 47 46 37 41 54 59 46
15
0
42 47 46 49 44 37 39 56 59 47
16
0
43 47 45 46 48 38 35 55 61 48
17
0
41 47 49 50 48 37 38 54 57 52
18
0
40 49 47 52 48 38 36 56 60 49
19
0
41 48 46 46 44 38 39 56 60 47
